c status 217 1469274320811
c status 29 1469274320815
s td 119 29 220
b 1 113 144 155 166 188 1
b 2 14 2 3 177 199 210 1
b 3 91 102 114 125 69 1 36 58 80
b 4 102 114 136 125 69 1 36 58 80
b 5 136 141 142 125 69 1 36 58 80
b 6 132 127 120 48 103 219 134 1 138 179
b 7 127 120 48 103 219 128 134 1 138 179
b 8 141 142 125 69 1 36 58 80 137 138 139 140
b 9 154 1 36 58 80 137 138 139 140 146 152 153
b 10 156 158 1 36 58 80 137 138 139 140 146 152 153
b 11 158 1 36 58 80 137 138 139 140 146 152 153 157
b 12 120 48 103 219 126 128 134 124 123 122 121 1 138 179
b 13 145 125 147 69 143 148 1 36 58 80 137 138 139 140
b 14 151 69 143 149 150 1 36 58 80 137 138 139 140 146
b 15 125 147 69 143 148 149 150 1 36 58 80 137 138 139 140
b 16 147 69 143 148 149 150 1 36 58 80 137 138 139 140 146
b 17 161 162 1 36 58 80 137 138 139 140 146 152 153 157 159 160
b 18 163 164 162 167 1 36 58 80 137 138 139 140 146 152 153 157 159 160
b 19 175 162 167 1 36 58 80 137 138 139 140 146 152 153 157 159 160 165 174
b 20 197 198 200 2 47 25 3 177 199 210 1 58 138 146 152 153 157 159 179
b 21 198 200 2 47 25 3 177 199 210 1 58 138 140 146 152 153 157 159 179
b 22 200 2 47 25 3 177 199 210 1 58 138 139 140 146 152 153 157 159 179
b 23 194 193 1 58 80 137 138 139 140 146 152 153 157 159 160 165 174 180 183 184
b 24 30 207 1 58 80 137 138 139 140 146 152 153 157 159 160 165 174 180 183 184
b 25 195 215 1 58 80 137 138 139 140 146 152 153 157 159 160 165 174 180 183 184
b 26 24 207 1 58 80 137 138 139 140 146 152 153 157 159 160 165 174 180 183 184
b 27 212 211 1 58 80 137 138 139 140 146 152 153 157 159 160 165 174 180 183 184
b 28 217 207 1 58 80 137 138 139 140 146 152 153 157 159 160 165 174 180 183 184
b 29 215 207 1 58 80 137 138 139 140 146 152 153 157 159 160 165 174 180 183 184
b 30 13 192 1 58 80 137 138 139 140 146 152 153 157 159 160 165 174 180 183 184
b 31 131 1 58 80 129 137 138 139 140 146 152 153 157 159 160 165 174 179 180 183 184
b 32 130 1 58 80 129 137 138 139 140 146 152 153 157 159 160 165 174 179 180 183 184
b 33 34 1 36 58 80 137 138 139 140 146 152 153 157 159 160 165 174 179 180 183 184
b 34 190 1 36 58 80 137 138 139 140 146 152 153 157 159 160 165 174 179 180 183 184
b 35 168 169 170 162 167 171 1 36 58 80 137 138 139 140 146 152 153 157 159 160 165
b 36 218 1 36 58 80 137 138 139 140 146 152 153 157 159 160 165 174 179 180 183 184
b 37 10 1 36 58 80 137 138 139 140 146 152 153 157 159 160 165 174 179 180 183 184
b 38 169 170 162 167 171 172 1 36 58 80 137 138 139 140 146 152 153 157 159 160 165
b 39 209 211 207 1 58 80 137 138 139 140 146 152 153 157 159 160 165 174 180 183 184
b 40 173 178 176 162 167 171 172 1 36 58 80 137 138 139 140 146 152 153 157 159 160 165
b 41 213 192 214 211 1 58 80 137 138 139 140 146 152 153 157 159 160 165 174 180 183 184
b 42 45 1 36 41 58 80 137 138 139 140 146 152 153 157 159 160 165 174 179 180 183 184
b 43 178 176 162 167 171 172 1 36 58 80 137 138 139 140 146 152 153 157 159 160 165 174
b 44 35 37 1 36 58 80 137 138 139 140 146 152 153 157 159 160 165 174 179 180 183 184
b 45 162 167 171 172 181 182 1 36 58 80 137 138 139 140 146 152 153 157 159 160 165 174
b 46 181 182 1 36 58 80 137 138 139 140 146 152 153 157 159 160 165 174 179 180
b 47 37 38 1 36 58 80 137 138 139 140 146 152 153 157 159 160 165 174 179 180 183 184
b 48 110 133 1 41 58 80 129 137 138 139 140 146 152 153 157 159 160 165 174 179 180 183 184
b 49 135 133 1 41 58 80 129 137 138 139 140 146 152 153 157 159 160 165 174 179 180 183 184
b 50 196 133 1 41 58 80 129 137 138 139 140 146 152 153 157 159 160 165 174 179 180 183 184
b 51 40 38 39 1 36 58 80 137 138 139 140 146 152 153 157 159 160 165 174 179 180 183 184
b 52 207 133 1 41 58 80 129 137 138 139 140 146 152 153 157 159 160 165 174 179 180 183 184
b 53 12 8 7 1 36 58 80 137 138 139 140 146 152 153 157 159 160 165 174 179 180 183 184
b 54 4 6 5 1 36 58 80 137 138 139 140 146 152 153 157 159 160 165 174 179 180 183 184
b 55 8 11 7 1 36 58 80 137 138 139 140 146 152 153 157 159 160 165 174 179 180 183 184
b 56 6 5 7 1 36 58 80 137 138 139 140 146 152 153 157 159 160 165 174 179 180 183 184
b 57 68 133 1 41 58 80 129 137 138 139 140 146 152 153 157 159 160 165 174 179 180 183 184
b 58 70 71 1 36 41 58 80 137 138 139 140 146 152 153 157 159 160 165 174 179 180 183 184
b 59 126 128 134 124 123 122 121 2 47 25 3 177 199 210 1 58 138 160 165 174 179 180 183 184
b 60 124 123 122 121 2 47 25 3 177 199 210 1 58 138 159 160 165 174 179 180 183 184
b 61 123 122 121 2 47 25 3 177 199 210 1 58 138 157 159 160 165 174 179 180 183 184
b 62 122 121 2 47 25 3 177 199 210 1 58 138 153 157 159 160 165 174 179 180 183 184
b 63 121 2 47 25 3 177 199 210 1 58 138 152 153 157 159 160 165 174 179 180 183 184
b 64 44 39 42 1 36 41 58 80 137 138 139 140 146 152 153 157 159 160 165 174 179 180 183 184
b 65 39 42 43 1 36 41 58 80 137 138 139 140 146 152 153 157 159 160 165 174 179 180 183 184
b 66 76 133 1 41 58 77 80 129 137 138 139 140 146 152 153 157 159 160 165 174 179 180 183 184
b 67 71 73 1 36 41 58 72 80 137 138 139 140 146 152 153 157 159 160 165 174 179 180 183 184
b 68 73 1 36 41 58 72 74 80 137 138 139 140 146 152 153 157 159 160 165 174 179 180 183 184
b 69 49 46 52 133 1 41 58 80 129 137 138 139 140 146 152 153 157 159 160 165 174 179 180 183 184
b 70 105 95 104 133 1 41 58 80 129 137 138 139 140 146 152 153 157 159 160 165 174 179 180 183 184
b 71 185 187 189 199 210 1 36 58 80 137 138 139 140 146 152 153 157 159 160 165 174 179 180 183 184
b 72 53 51 50 54 1 36 41 58 80 137 138 139 140 146 152 153 157 159 160 165 174 179 180 183 184
b 73 201 202 206 203 204 205 208 1 58 80 137 138 139 140 146 152 153 157 159 160 165 174 180 183 184
b 74 56 55 50 54 1 36 41 58 80 137 138 139 140 146 152 153 157 159 160 165 174 179 180 183 184
b 75 202 206 203 204 205 208 47 1 58 80 137 138 139 140 146 152 153 157 159 160 165 174 180 183 184
b 76 55 59 50 54 1 36 41 58 80 137 138 139 140 146 152 153 157 159 160 165 174 179 180 183 184
b 77 206 203 204 205 208 2 47 1 58 80 137 138 139 140 146 152 153 157 159 160 165 174 180 183 184
b 78 86 133 1 41 58 77 80 129 137 138 139 140 146 152 153 157 159 160 165 174 179 180 183 184 216
b 79 107 106 108 31 57 1 36 41 58 80 137 138 139 140 146 152 153 157 159 160 165 174 179 180 183 184
b 80 191 32 33 186 133 1 41 58 80 129 137 138 139 140 146 152 153 157 159 160 165 174 179 180 183 184
b 81 2 47 25 3 177 199 210 1 58 80 137 138 139 140 146 152 153 157 159 160 165 174 179 180 183 184
b 82 66 65 50 60 64 1 36 41 58 80 137 138 139 140 146 152 153 157 159 160 165 174 179 180 183 184
b 83 29 28 27 26 22 15 23 1 36 58 80 137 138 139 140 146 152 153 157 159 160 165 174 179 180 183 184
b 84 111 109 106 108 31 57 1 36 41 58 80 137 138 139 140 146 152 153 157 159 160 165 174 179 180 183 184
b 85 112 109 106 108 31 57 1 36 41 58 80 137 138 139 140 146 152 153 157 159 160 165 174 179 180 183 184
b 86 61 62 50 54 60 63 1 36 41 58 80 137 138 139 140 146 152 153 157 159 160 165 174 179 180 183 184
b 87 65 50 54 60 63 64 1 36 41 58 80 137 138 139 140 146 152 153 157 159 160 165 174 179 180 183 184
b 88 62 50 54 60 63 64 1 36 41 58 80 137 138 139 140 146 152 153 157 159 160 165 174 179 180 183 184
b 89 85 83 75 1 36 41 58 72 74 77 80 137 138 139 140 146 152 153 157 159 160 165 174 179 180 183 184 216
b 90 101 99 89 1 36 41 58 77 80 88 137 138 139 140 146 152 153 157 159 160 165 174 179 180 183 184 216 220
b 91 100 99 89 1 36 41 58 77 80 88 137 138 139 140 146 152 153 157 159 160 165 174 179 180 183 184 216 220
b 92 28 27 26 22 7 15 21 23 1 36 58 80 137 138 139 140 146 152 153 157 159 160 165 174 179 180 183 184
b 93 81 82 75 1 36 41 58 72 74 77 80 137 138 139 140 146 152 153 157 159 160 165 174 179 180 183 184 216
b 94 16 17 7 15 18 19 20 21 1 36 58 80 137 138 139 140 146 152 153 157 159 160 165 174 179 180 183 184
b 95 82 83 75 1 36 41 58 72 74 77 80 137 138 139 140 146 152 153 157 159 160 165 174 179 180 183 184 216
b 96 27 26 22 7 15 20 21 23 1 36 58 80 137 138 139 140 146 152 153 157 159 160 165 174 179 180 183 184
b 97 17 22 7 15 18 19 20 21 1 36 58 80 137 138 139 140 146 152 153 157 159 160 165 174 179 180 183 184
b 98 26 22 7 15 19 20 21 23 1 36 58 80 137 138 139 140 146 152 153 157 159 160 165 174 179 180 183 184
b 99 83 84 75 1 36 41 58 72 74 77 80 137 138 139 140 146 152 153 157 159 160 165 174 179 180 183 184 216
b 100 22 7 15 18 19 20 21 23 1 36 58 80 137 138 139 140 146 152 153 157 159 160 165 174 179 180 183 184
b 101 79 75 9 1 36 41 58 72 74 77 80 137 138 139 140 146 152 153 157 159 160 165 174 179 180 183 184 216
b 102 78 75 9 1 36 41 58 72 74 77 80 137 138 139 140 146 152 153 157 159 160 165 174 179 180 183 184 216
b 103 9 133 1 36 41 58 72 74 77 80 129 137 138 139 140 146 152 153 157 159 160 165 174 179 180 183 184 216
b 104 94 87 89 93 1 36 41 58 72 77 80 137 138 139 140 146 152 153 157 159 160 165 174 179 180 183 184 216 220
b 105 96 87 89 93 1 36 41 58 72 77 80 137 138 139 140 146 152 153 157 159 160 165 174 179 180 183 184 216 220
b 106 99 98 97 89 1 36 41 58 77 80 88 137 138 139 140 146 152 153 157 159 160 165 174 179 180 183 184 216 220
b 107 90 87 89 1 36 41 58 72 74 77 80 137 138 139 140 146 152 153 157 159 160 165 174 179 180 183 184 216 220
b 108 116 117 106 108 115 31 57 67 1 36 41 58 80 137 138 139 140 146 152 153 157 159 160 165 174 179 180 183 184
b 109 98 97 89 93 1 36 41 58 77 80 88 137 138 139 140 146 152 153 157 159 160 165 174 179 180 183 184 216 220
b 110 117 106 108 115 118 31 57 67 1 36 41 58 80 137 138 139 140 146 152 153 157 159 160 165 174 179 180 183 184
b 111 97 89 93 1 36 41 58 72 77 80 88 137 138 139 140 146 152 153 157 159 160 165 174 179 180 183 184 216 220
b 112 106 108 115 118 119 31 57 67 1 36 41 58 80 137 138 139 140 146 152 153 157 159 160 165 174 179 180 183 184
b 113 31 57 67 133 1 36 41 58 80 129 137 138 139 140 146 152 153 157 159 160 165 174 179 180 183 184
b 114 92 87 89 1 36 41 58 72 74 77 80 137 138 139 140 146 152 153 157 159 160 165 174 179 180 183 184 216 220
b 115 47 25 3 177 199 210 133 1 41 58 77 80 129 137 138 139 140 146 152 153 157 159 160 165 174 179 180 183 184
b 116 87 89 93 1 36 41 58 72 74 77 80 137 138 139 140 146 152 153 157 159 160 165 174 179 180 183 184 216 220
b 117 25 3 177 199 210 133 1 36 41 58 77 80 129 137 138 139 140 146 152 153 157 159 160 165 174 179 180 183 184
b 118 89 93 1 36 41 58 72 74 77 80 88 137 138 139 140 146 152 153 157 159 160 165 174 179 180 183 184 216 220
b 119 133 1 36 41 58 72 74 77 80 88 129 137 138 139 140 146 152 153 157 159 160 165 174 179 180 183 184 216 220
1 2
2 20
20 21
21 22
22 81
81 115
115 117
117 103
103 119
119 118
118 111
118 116
111 109
116 104
116 105
116 107
116 114
109 106
106 91
106 90
103 101
101 102
101 89
89 95
89 99
95 93
103 78
116 68
78 66
68 67
117 113
113 108
108 110
110 112
108 84
84 85
108 79
115 80
115 48
78 49
78 50
78 52
78 57
115 70
78 69
67 58
117 71
79 65
65 64
111 86
86 88
88 87
87 82
87 72
87 74
74 76
82 42
81 63
63 62
62 61
61 60
60 59
65 51
51 47
47 44
47 37
47 36
87 92
92 96
96 98
98 100
100 97
97 94
92 83
92 55
55 53
92 56
56 54
82 33
82 34
115 32
32 31
81 77
77 75
75 73
52 24
52 26
52 28
52 29
52 39
39 27
39 41
41 30
29 25
39 23
34 46
46 45
45 43
43 40
45 38
38 35
45 19
45 18
45 17
65 11
11 10
46 9
59 12
45 16
16 15
16 14
15 13
15 8
12 7
7 6
8 5
5 4
4 3
